AME : levi30_11
COMMENT : 30: 36x20 -city problem (levikoppenhol)
TYPE : TSP
DIMENSION : 30
EDGE_WEIGHT_TYPE : EUC_2D
NODE_COORD_SECTION
1 19 1
2 13 5
3 2 34
4 4 24
5 15 21
6 7 24
7 6 29
8 15 22
9 18 25
10 7 34
11 3 18
12 0 3
13 13 13
14 19 26
15 2 20
16 19 35
17 10 30
18 3 6
19 14 36
20 1 16
21 9 25
22 3 33
23 12 36
24 3 7
25 7 5
26 11 16
27 8 9
28 0 8
29 19 17
30 13 8
EOF